\ Model MasterProblem
\ LP format - for model browsing. Use MPS format to capture full model detail.
Maximize
  - 2419.16 x[1] - 2405.11 x[2] - 1830.05 x[3] - 2215.97 x[4] - 2403.11 x[5]
   - 1507.54 x[6] - 1755.8 x[7] - 2419.16 x[1] - 2405.11 x[2]
   - 1830.05 x[3] - 2215.97 x[4] - 2403.11 x[5] - 1507.54 x[6]
   - 1755.8 x[7] - 2419.16 x[1] - 2405.11 x[2] - 1830.05 x[3]
   - 2215.97 x[4] - 2403.11 x[5] - 1507.54 x[6] - 1755.8 x[7] - 999999 y
   - 999999 y - 999999 y - 999999 y - 999999 y - 999999 y
Subject To
 route_selection: x[0] + x[1] + x[2] + x[3] + x[4] + x[5] + x[6] + x[7]
   <= 1
 route_selection: x[0] + x[1] + x[2] + x[3] + x[4] + x[5] + x[6] + x[7]
   <= 1
 route_selection: x[0] + x[1] + x[2] + x[3] + x[4] + x[5] + x[6] + x[7]
   <= 1
 demand_const: 9000 x[3] + 9000 x[3] + 9000 x[3] + 9000 y >= 9000
 demand_const: 5400 x[6] + 5400 x[6] + 5400 x[6] + 5400 y >= 5400
 demand_const: 1000 x[1] + 1000 x[2] + 1000 x[5] + 1000 x[1] + 1000 x[2]
   + 1000 x[5] + 1000 x[1] + 1000 x[2] + 1000 x[5] + 1000 y >= 1000
 demand_const: 5500 y >= 5500
 demand_const: 15000 x[4] + 15000 x[7] + 15000 x[4] + 15000 x[7]
   + 15000 x[4] + 15000 x[7] + 15000 y >= 15000
 demand_const: 18700 x[1] + 18700 x[2] + 18700 x[4] + 18700 x[1]
   + 18700 x[2] + 18700 x[4] + 18700 x[1] + 18700 x[2] + 18700 x[4]
   + 18700 y >= 18700
Bounds
 x[0] <= 1
 x[1] <= 1
 x[2] <= 1
 x[3] <= 1
 x[4] <= 1
 x[5] <= 1
 x[6] <= 1
 x[7] <= 1
 x[0] <= 1
 x[1] <= 1
 x[2] <= 1
 x[3] <= 1
 x[4] <= 1
 x[5] <= 1
 x[6] <= 1
 x[7] <= 1
 x[0] <= 1
 x[1] <= 1
 x[2] <= 1
 x[3] <= 1
 x[4] <= 1
 x[5] <= 1
 x[6] <= 1
 x[7] <= 1
 y <= 1
 y <= 1
 y <= 1
 y <= 1
 y <= 1
 y <= 1
End
